c nIsolatedPIs 128
c maxPI 128
p cnf 448 961
c gate 129 -56 -120 0
-56 -129 0
-120 -129 0
56 120 129 0
c gate 130 56 120 0
56 -130 0
120 -130 0
-56 -120 130 0
c gate 131 55 119 0
55 -131 0
119 -131 0
-55 -119 131 0
c gate 132 -130 -131 0
-130 -132 0
-131 -132 0
130 131 132 0
c gate 133 -55 -119 0
-55 -133 0
-119 -133 0
55 119 133 0
c gate 134 -54 -118 0
-54 -134 0
-118 -134 0
54 118 134 0
c gate 135 -133 -134 0
-133 -135 0
-134 -135 0
133 134 135 0
c gate 136 54 118 0
54 -136 0
118 -136 0
-54 -118 136 0
c gate 137 53 117 0
53 -137 0
117 -137 0
-53 -117 137 0
c gate 138 -136 -137 0
-136 -138 0
-137 -138 0
136 137 138 0
c gate 139 -53 -117 0
-53 -139 0
-117 -139 0
53 117 139 0
c gate 140 49 113 0
49 -140 0
113 -140 0
-49 -113 140 0
c gate 141 50 114 0
50 -141 0
114 -141 0
-50 -114 141 0
c gate 142 -140 -141 0
-140 -142 0
-141 -142 0
140 141 142 0
c gate 143 -51 -115 0
-51 -143 0
-115 -143 0
51 115 143 0
c gate 144 -50 -114 0
-50 -144 0
-114 -144 0
50 114 144 0
c gate 145 -52 -116 0
-52 -145 0
-116 -145 0
52 116 145 0
c gate 146 -144 -145 0
-144 -146 0
-145 -146 0
144 145 146 0
c gate 147 -143 146 0
-143 -147 0
146 -147 0
143 -146 147 0
c gate 148 -142 147 0
-142 -148 0
147 -148 0
142 -147 148 0
c gate 149 52 116 0
52 -149 0
116 -149 0
-52 -116 149 0
c gate 150 51 115 0
51 -150 0
115 -150 0
-51 -115 150 0
c gate 151 -145 150 0
-145 -151 0
150 -151 0
145 -150 151 0
c gate 152 -149 -151 0
-149 -152 0
-151 -152 0
149 151 152 0
c gate 153 -148 152 0
-148 -153 0
152 -153 0
148 -152 153 0
c gate 154 -139 -153 0
-139 -154 0
-153 -154 0
139 153 154 0
c gate 155 138 -154 0
138 -155 0
-154 -155 0
-138 154 155 0
c gate 156 135 -155 0
135 -156 0
-155 -156 0
-135 155 156 0
c gate 157 132 -156 0
132 -157 0
-156 -157 0
-132 156 157 0
c gate 158 -129 -157 0
-129 -158 0
-157 -158 0
129 157 158 0
c gate 159 48 112 0
48 -159 0
112 -159 0
-48 -112 159 0
c gate 160 -48 -112 0
-48 -160 0
-112 -160 0
48 112 160 0
c gate 161 47 111 0
47 -161 0
111 -161 0
-47 -111 161 0
c gate 162 -160 161 0
-160 -162 0
161 -162 0
160 -161 162 0
c gate 163 -159 -162 0
-159 -163 0
-162 -163 0
159 162 163 0
c gate 164 -46 -110 0
-46 -164 0
-110 -164 0
46 110 164 0
c gate 165 -47 -111 0
-47 -165 0
-111 -165 0
47 111 165 0
c gate 166 -160 -165 0
-160 -166 0
-165 -166 0
160 165 166 0
c gate 167 -164 166 0
-164 -167 0
166 -167 0
164 -166 167 0
c gate 168 163 167 0
163 -168 0
167 -168 0
-163 -167 168 0
c gate 169 -45 -109 0
-45 -169 0
-109 -169 0
45 109 169 0
c gate 170 46 110 0
46 -170 0
110 -170 0
-46 -110 170 0
c gate 171 45 109 0
45 -171 0
109 -171 0
-45 -109 171 0
c gate 172 -170 -171 0
-170 -172 0
-171 -172 0
170 171 172 0
c gate 173 -169 172 0
-169 -173 0
172 -173 0
169 -172 173 0
c gate 174 168 173 0
168 -174 0
173 -174 0
-168 -173 174 0
c gate 175 44 108 0
44 -175 0
108 -175 0
-44 -108 175 0
c gate 176 -44 -108 0
-44 -176 0
-108 -176 0
44 108 176 0
c gate 177 43 107 0
43 -177 0
107 -177 0
-43 -107 177 0
c gate 178 -176 177 0
-176 -178 0
177 -178 0
176 -177 178 0
c gate 179 -175 -178 0
-175 -179 0
-178 -179 0
175 178 179 0
c gate 180 -42 -106 0
-42 -180 0
-106 -180 0
42 106 180 0
c gate 181 -43 -107 0
-43 -181 0
-107 -181 0
43 107 181 0
c gate 182 -176 -181 0
-176 -182 0
-181 -182 0
176 181 182 0
c gate 183 -180 182 0
-180 -183 0
182 -183 0
180 -182 183 0
c gate 184 179 183 0
179 -184 0
183 -184 0
-179 -183 184 0
c gate 185 42 106 0
42 -185 0
106 -185 0
-42 -106 185 0
c gate 186 41 105 0
41 -186 0
105 -186 0
-41 -105 186 0
c gate 187 -185 -186 0
-185 -187 0
-186 -187 0
185 186 187 0
c gate 188 184 -187 0
184 -188 0
-187 -188 0
-184 187 188 0
c gate 189 179 -188 0
179 -189 0
-188 -189 0
-179 188 189 0
c gate 190 174 -189 0
174 -190 0
-189 -190 0
-174 189 190 0
c gate 191 168 -172 0
168 -191 0
-172 -191 0
-168 172 191 0
c gate 192 163 -191 0
163 -192 0
-191 -192 0
-163 191 192 0
c gate 193 -190 192 0
-190 -193 0
192 -193 0
190 -192 193 0
c gate 194 132 135 0
132 -194 0
135 -194 0
-132 -135 194 0
c gate 195 138 142 0
138 -195 0
142 -195 0
-138 -142 195 0
c gate 196 194 195 0
194 -196 0
195 -196 0
-194 -195 196 0
c gate 197 -49 -113 0
-49 -197 0
-113 -197 0
49 113 197 0
c gate 198 -129 -139 0
-129 -198 0
-139 -198 0
129 139 198 0
c gate 199 -197 198 0
-197 -199 0
198 -199 0
197 -198 199 0
c gate 200 147 199 0
147 -200 0
199 -200 0
-147 -199 200 0
c gate 201 152 200 0
152 -201 0
200 -201 0
-152 -200 201 0
c gate 202 196 201 0
196 -202 0
201 -202 0
-196 -201 202 0
c gate 203 -193 202 0
-193 -203 0
202 -203 0
193 -202 203 0
c gate 204 -158 -203 0
-158 -204 0
-203 -204 0
158 203 204 0
c gate 205 -40 -104 0
-40 -205 0
-104 -205 0
40 104 205 0
c gate 206 40 104 0
40 -206 0
104 -206 0
-40 -104 206 0
c gate 207 39 103 0
39 -207 0
103 -207 0
-39 -103 207 0
c gate 208 -206 -207 0
-206 -208 0
-207 -208 0
206 207 208 0
c gate 209 -39 -103 0
-39 -209 0
-103 -209 0
39 103 209 0
c gate 210 -38 -102 0
-38 -210 0
-102 -210 0
38 102 210 0
c gate 211 -209 -210 0
-209 -211 0
-210 -211 0
209 210 211 0
c gate 212 38 102 0
38 -212 0
102 -212 0
-38 -102 212 0
c gate 213 37 101 0
37 -213 0
101 -213 0
-37 -101 213 0
c gate 214 -212 -213 0
-212 -214 0
-213 -214 0
212 213 214 0
c gate 215 -37 -101 0
-37 -215 0
-101 -215 0
37 101 215 0
c gate 216 33 97 0
33 -216 0
97 -216 0
-33 -97 216 0
c gate 217 34 98 0
34 -217 0
98 -217 0
-34 -98 217 0
c gate 218 -216 -217 0
-216 -218 0
-217 -218 0
216 217 218 0
c gate 219 -35 -99 0
-35 -219 0
-99 -219 0
35 99 219 0
c gate 220 -34 -98 0
-34 -220 0
-98 -220 0
34 98 220 0
c gate 221 -36 -100 0
-36 -221 0
-100 -221 0
36 100 221 0
c gate 222 -220 -221 0
-220 -222 0
-221 -222 0
220 221 222 0
c gate 223 -219 222 0
-219 -223 0
222 -223 0
219 -222 223 0
c gate 224 -218 223 0
-218 -224 0
223 -224 0
218 -223 224 0
c gate 225 36 100 0
36 -225 0
100 -225 0
-36 -100 225 0
c gate 226 35 99 0
35 -226 0
99 -226 0
-35 -99 226 0
c gate 227 -221 226 0
-221 -227 0
226 -227 0
221 -226 227 0
c gate 228 -225 -227 0
-225 -228 0
-227 -228 0
225 227 228 0
c gate 229 -224 228 0
-224 -229 0
228 -229 0
224 -228 229 0
c gate 230 -215 -229 0
-215 -230 0
-229 -230 0
215 229 230 0
c gate 231 214 -230 0
214 -231 0
-230 -231 0
-214 230 231 0
c gate 232 211 -231 0
211 -232 0
-231 -232 0
-211 231 232 0
c gate 233 208 -232 0
208 -233 0
-232 -233 0
-208 232 233 0
c gate 234 -205 -233 0
-205 -234 0
-233 -234 0
205 233 234 0
c gate 235 208 211 0
208 -235 0
211 -235 0
-208 -211 235 0
c gate 236 214 218 0
214 -236 0
218 -236 0
-214 -218 236 0
c gate 237 235 236 0
235 -237 0
236 -237 0
-235 -236 237 0
c gate 238 -33 -97 0
-33 -238 0
-97 -238 0
33 97 238 0
c gate 239 -205 -215 0
-205 -239 0
-215 -239 0
205 215 239 0
c gate 240 -238 239 0
-238 -240 0
239 -240 0
238 -239 240 0
c gate 241 223 240 0
223 -241 0
240 -241 0
-223 -240 241 0
c gate 242 228 241 0
228 -242 0
241 -242 0
-228 -241 242 0
c gate 243 237 242 0
237 -243 0
242 -243 0
-237 -242 243 0
c gate 244 -32 -96 0
-32 -244 0
-96 -244 0
32 96 244 0
c gate 245 32 96 0
32 -245 0
96 -245 0
-32 -96 245 0
c gate 246 31 95 0
31 -246 0
95 -246 0
-31 -95 246 0
c gate 247 -245 -246 0
-245 -247 0
-246 -247 0
245 246 247 0
c gate 248 -31 -95 0
-31 -248 0
-95 -248 0
31 95 248 0
c gate 249 -30 -94 0
-30 -249 0
-94 -249 0
30 94 249 0
c gate 250 -248 -249 0
-248 -250 0
-249 -250 0
248 249 250 0
c gate 251 30 94 0
30 -251 0
94 -251 0
-30 -94 251 0
c gate 252 29 93 0
29 -252 0
93 -252 0
-29 -93 252 0
c gate 253 -251 -252 0
-251 -253 0
-252 -253 0
251 252 253 0
c gate 254 28 92 0
28 -254 0
92 -254 0
-28 -92 254 0
c gate 255 27 91 0
27 -255 0
91 -255 0
-27 -91 255 0
c gate 256 25 89 0
25 -256 0
89 -256 0
-25 -89 256 0
c gate 257 26 90 0
26 -257 0
90 -257 0
-26 -90 257 0
c gate 258 -256 -257 0
-256 -258 0
-257 -258 0
256 257 258 0
c gate 259 -26 -90 0
-26 -259 0
-90 -259 0
26 90 259 0
c gate 260 -258 -259 0
-258 -260 0
-259 -260 0
258 259 260 0
c gate 261 -255 -260 0
-255 -261 0
-260 -261 0
255 260 261 0
c gate 262 -27 -91 0
-27 -262 0
-91 -262 0
27 91 262 0
c gate 263 -261 -262 0
-261 -263 0
-262 -263 0
261 262 263 0
c gate 264 -254 -263 0
-254 -264 0
-263 -264 0
254 263 264 0
c gate 265 -28 -92 0
-28 -265 0
-92 -265 0
28 92 265 0
c gate 266 -29 -93 0
-29 -266 0
-93 -266 0
29 93 266 0
c gate 267 -265 -266 0
-265 -267 0
-266 -267 0
265 266 267 0
c gate 268 -264 267 0
-264 -268 0
267 -268 0
264 -267 268 0
c gate 269 253 -268 0
253 -269 0
-268 -269 0
-253 268 269 0
c gate 270 250 -269 0
250 -270 0
-269 -270 0
-250 269 270 0
c gate 271 247 -270 0
247 -271 0
-270 -271 0
-247 270 271 0
c gate 272 -244 -271 0
-244 -272 0
-271 -272 0
244 271 272 0
c gate 273 2 66 0
2 -273 0
66 -273 0
-2 -66 273 0
c gate 274 1 65 0
1 -274 0
65 -274 0
-1 -65 274 0
c gate 275 -273 -274 0
-273 -275 0
-274 -275 0
273 274 275 0
c gate 276 -3 -67 0
-3 -276 0
-67 -276 0
3 67 276 0
c gate 277 -2 -66 0
-2 -277 0
-66 -277 0
2 66 277 0
c gate 278 -276 -277 0
-276 -278 0
-277 -278 0
276 277 278 0
c gate 279 -275 278 0
-275 -279 0
278 -279 0
275 -278 279 0
c gate 280 4 68 0
4 -280 0
68 -280 0
-4 -68 280 0
c gate 281 3 67 0
3 -281 0
67 -281 0
-3 -67 281 0
c gate 282 -280 -281 0
-280 -282 0
-281 -282 0
280 281 282 0
c gate 283 -279 282 0
-279 -283 0
282 -283 0
279 -282 283 0
c gate 284 -4 -68 0
-4 -284 0
-68 -284 0
4 68 284 0
c gate 285 -5 -69 0
-5 -285 0
-69 -285 0
5 69 285 0
c gate 286 -284 -285 0
-284 -286 0
-285 -286 0
284 285 286 0
c gate 287 -283 286 0
-283 -287 0
286 -287 0
283 -286 287 0
c gate 288 6 70 0
6 -288 0
70 -288 0
-6 -70 288 0
c gate 289 5 69 0
5 -289 0
69 -289 0
-5 -69 289 0
c gate 290 -288 -289 0
-288 -290 0
-289 -290 0
288 289 290 0
c gate 291 -287 290 0
-287 -291 0
290 -291 0
287 -290 291 0
c gate 292 -7 -71 0
-7 -292 0
-71 -292 0
7 71 292 0
c gate 293 -6 -70 0
-6 -293 0
-70 -293 0
6 70 293 0
c gate 294 -292 -293 0
-292 -294 0
-293 -294 0
292 293 294 0
c gate 295 -291 294 0
-291 -295 0
294 -295 0
291 -294 295 0
c gate 296 8 72 0
8 -296 0
72 -296 0
-8 -72 296 0
c gate 297 7 71 0
7 -297 0
71 -297 0
-7 -71 297 0
c gate 298 -296 -297 0
-296 -298 0
-297 -298 0
296 297 298 0
c gate 299 -295 298 0
-295 -299 0
298 -299 0
295 -298 299 0
c gate 300 -9 -73 0
-9 -300 0
-73 -300 0
9 73 300 0
c gate 301 -8 -72 0
-8 -301 0
-72 -301 0
8 72 301 0
c gate 302 -300 -301 0
-300 -302 0
-301 -302 0
300 301 302 0
c gate 303 -299 302 0
-299 -303 0
302 -303 0
299 -302 303 0
c gate 304 10 74 0
10 -304 0
74 -304 0
-10 -74 304 0
c gate 305 9 73 0
9 -305 0
73 -305 0
-9 -73 305 0
c gate 306 -304 -305 0
-304 -306 0
-305 -306 0
304 305 306 0
c gate 307 -303 306 0
-303 -307 0
306 -307 0
303 -306 307 0
c gate 308 -10 -74 0
-10 -308 0
-74 -308 0
10 74 308 0
c gate 309 -12 -76 0
-12 -309 0
-76 -309 0
12 76 309 0
c gate 310 -11 -75 0
-11 -310 0
-75 -310 0
11 75 310 0
c gate 311 -309 -310 0
-309 -311 0
-310 -311 0
309 310 311 0
c gate 312 -308 311 0
-308 -312 0
311 -312 0
308 -311 312 0
c gate 313 -307 312 0
-307 -313 0
312 -313 0
307 -312 313 0
c gate 314 12 76 0
12 -314 0
76 -314 0
-12 -76 314 0
c gate 315 11 75 0
11 -315 0
75 -315 0
-11 -75 315 0
c gate 316 -309 315 0
-309 -316 0
315 -316 0
309 -315 316 0
c gate 317 -314 -316 0
-314 -317 0
-316 -317 0
314 316 317 0
c gate 318 -313 317 0
-313 -318 0
317 -318 0
313 -317 318 0
c gate 319 -14 -78 0
-14 -319 0
-78 -319 0
14 78 319 0
c gate 320 -15 -79 0
-15 -320 0
-79 -320 0
15 79 320 0
c gate 321 -319 -320 0
-319 -321 0
-320 -321 0
319 320 321 0
c gate 322 14 78 0
14 -322 0
78 -322 0
-14 -78 322 0
c gate 323 13 77 0
13 -323 0
77 -323 0
-13 -77 323 0
c gate 324 -322 -323 0
-322 -324 0
-323 -324 0
322 323 324 0
c gate 325 -13 -77 0
-13 -325 0
-77 -325 0
13 77 325 0
c gate 326 324 -325 0
324 -326 0
-325 -326 0
-324 325 326 0
c gate 327 321 326 0
321 -327 0
326 -327 0
-321 -326 327 0
c gate 328 -318 327 0
-318 -328 0
327 -328 0
318 -327 328 0
c gate 329 321 -324 0
321 -329 0
-324 -329 0
-321 324 329 0
c gate 330 15 79 0
15 -330 0
79 -330 0
-15 -79 330 0
c gate 331 16 80 0
16 -331 0
80 -331 0
-16 -80 331 0
c gate 332 -330 -331 0
-330 -332 0
-331 -332 0
330 331 332 0
c gate 333 -329 332 0
-329 -333 0
332 -333 0
329 -332 333 0
c gate 334 -328 333 0
-328 -334 0
333 -334 0
328 -333 334 0
c gate 335 20 84 0
20 -335 0
84 -335 0
-20 -84 335 0
c gate 336 -20 -84 0
-20 -336 0
-84 -336 0
20 84 336 0
c gate 337 19 83 0
19 -337 0
83 -337 0
-19 -83 337 0
c gate 338 -336 337 0
-336 -338 0
337 -338 0
336 -337 338 0
c gate 339 -335 -338 0
-335 -339 0
-338 -339 0
335 338 339 0
c gate 340 -19 -83 0
-19 -340 0
-83 -340 0
19 83 340 0
c gate 341 -336 -340 0
-336 -341 0
-340 -341 0
336 340 341 0
c gate 342 339 341 0
339 -342 0
341 -342 0
-339 -341 342 0
c gate 343 24 88 0
24 -343 0
88 -343 0
-24 -88 343 0
c gate 344 23 87 0
23 -344 0
87 -344 0
-23 -87 344 0
c gate 345 -343 -344 0
-343 -345 0
-344 -345 0
343 344 345 0
c gate 346 -24 -88 0
-24 -346 0
-88 -346 0
24 88 346 0
c gate 347 -21 -85 0
-21 -347 0
-85 -347 0
21 85 347 0
c gate 348 -346 -347 0
-346 -348 0
-347 -348 0
346 347 348 0
c gate 349 345 348 0
345 -349 0
348 -349 0
-345 -348 349 0
c gate 350 22 86 0
22 -350 0
86 -350 0
-22 -86 350 0
c gate 351 21 85 0
21 -351 0
85 -351 0
-21 -85 351 0
c gate 352 -350 -351 0
-350 -352 0
-351 -352 0
350 351 352 0
c gate 353 -22 -86 0
-22 -353 0
-86 -353 0
22 86 353 0
c gate 354 -23 -87 0
-23 -354 0
-87 -354 0
23 87 354 0
c gate 355 -353 -354 0
-353 -355 0
-354 -355 0
353 354 355 0
c gate 356 352 355 0
352 -356 0
355 -356 0
-352 -355 356 0
c gate 357 349 356 0
349 -357 0
356 -357 0
-349 -356 357 0
c gate 358 18 82 0
18 -358 0
82 -358 0
-18 -82 358 0
c gate 359 17 81 0
17 -359 0
81 -359 0
-17 -81 359 0
c gate 360 -358 -359 0
-358 -360 0
-359 -360 0
358 359 360 0
c gate 361 -17 -81 0
-17 -361 0
-81 -361 0
17 81 361 0
c gate 362 -18 -82 0
-18 -362 0
-82 -362 0
18 82 362 0
c gate 363 -16 -80 0
-16 -363 0
-80 -363 0
16 80 363 0
c gate 364 -362 -363 0
-362 -364 0
-363 -364 0
362 363 364 0
c gate 365 -361 364 0
-361 -365 0
364 -365 0
361 -364 365 0
c gate 366 360 365 0
360 -366 0
365 -366 0
-360 -365 366 0
c gate 367 357 366 0
357 -367 0
366 -367 0
-357 -366 367 0
c gate 368 342 367 0
342 -368 0
367 -368 0
-342 -367 368 0
c gate 369 -334 368 0
-334 -369 0
368 -369 0
334 -368 369 0
c gate 370 -352 355 0
-352 -370 0
355 -370 0
352 -355 370 0
c gate 371 345 -370 0
345 -371 0
-370 -371 0
-345 370 371 0
c gate 372 -346 -371 0
-346 -372 0
-371 -372 0
346 371 372 0
c gate 373 -360 -362 0
-360 -373 0
-362 -373 0
360 362 373 0
c gate 374 342 373 0
342 -374 0
373 -374 0
-342 -373 374 0
c gate 375 339 -374 0
339 -375 0
-374 -375 0
-339 374 375 0
c gate 376 357 -375 0
357 -376 0
-375 -376 0
-357 375 376 0
c gate 377 -372 -376 0
-372 -377 0
-376 -377 0
372 376 377 0
c gate 378 -369 377 0
-369 -378 0
377 -378 0
369 -377 378 0
c gate 379 -25 -89 0
-25 -379 0
-89 -379 0
25 89 379 0
c gate 380 -259 -379 0
-259 -380 0
-379 -380 0
259 379 380 0
c gate 381 258 380 0
258 -381 0
380 -381 0
-258 -380 381 0
c gate 382 -262 -265 0
-262 -382 0
-265 -382 0
262 265 382 0
c gate 383 381 382 0
381 -383 0
382 -383 0
-381 -382 383 0
c gate 384 264 383 0
264 -384 0
383 -384 0
-264 -383 384 0
c gate 385 -378 384 0
-378 -385 0
384 -385 0
378 -384 385 0
c gate 386 -244 -266 0
-244 -386 0
-266 -386 0
244 266 386 0
c gate 387 247 386 0
247 -387 0
386 -387 0
-247 -386 387 0
c gate 388 250 253 0
250 -388 0
253 -388 0
-250 -253 388 0
c gate 389 387 388 0
387 -389 0
388 -389 0
-387 -388 389 0
c gate 390 385 389 0
385 -390 0
389 -390 0
-385 -389 390 0
c gate 391 -272 -390 0
-272 -391 0
-390 -391 0
272 390 391 0
c gate 392 243 -391 0
243 -392 0
-391 -392 0
-243 391 392 0
c gate 393 -234 -392 0
-234 -393 0
-392 -393 0
234 392 393 0
c gate 394 -41 -105 0
-41 -394 0
-105 -394 0
41 105 394 0
c gate 395 187 -394 0
187 -395 0
-394 -395 0
-187 394 395 0
c gate 396 184 395 0
184 -396 0
395 -396 0
-184 -395 396 0
c gate 397 174 396 0
174 -397 0
396 -397 0
-174 -396 397 0
c gate 398 -393 397 0
-393 -398 0
397 -398 0
393 -397 398 0
c gate 399 202 398 0
202 -399 0
398 -399 0
-202 -398 399 0
c gate 400 204 -399 0
204 -400 0
-399 -400 0
-204 399 400 0
c gate 401 60 124 0
60 -401 0
124 -401 0
-60 -124 401 0
c gate 402 -60 -124 0
-60 -402 0
-124 -402 0
60 124 402 0
c gate 403 59 123 0
59 -403 0
123 -403 0
-59 -123 403 0
c gate 404 -402 403 0
-402 -404 0
403 -404 0
402 -403 404 0
c gate 405 -401 -404 0
-401 -405 0
-404 -405 0
401 404 405 0
c gate 406 -58 -122 0
-58 -406 0
-122 -406 0
58 122 406 0
c gate 407 -59 -123 0
-59 -407 0
-123 -407 0
59 123 407 0
c gate 408 -402 -407 0
-402 -408 0
-407 -408 0
402 407 408 0
c gate 409 -406 408 0
-406 -409 0
408 -409 0
406 -408 409 0
c gate 410 405 409 0
405 -410 0
409 -410 0
-405 -409 410 0
c gate 411 58 122 0
58 -411 0
122 -411 0
-58 -122 411 0
c gate 412 57 121 0
57 -412 0
121 -412 0
-57 -121 412 0
c gate 413 -411 -412 0
-411 -413 0
-412 -413 0
411 412 413 0
c gate 414 -57 -121 0
-57 -414 0
-121 -414 0
57 121 414 0
c gate 415 413 -414 0
413 -415 0
-414 -415 0
-413 414 415 0
c gate 416 410 415 0
410 -416 0
415 -416 0
-410 -415 416 0
c gate 417 -62 -126 0
-62 -417 0
-126 -417 0
62 126 417 0
c gate 418 -63 -127 0
-63 -418 0
-127 -418 0
63 127 418 0
c gate 419 -417 -418 0
-417 -419 0
-418 -419 0
417 418 419 0
c gate 420 63 127 0
63 -420 0
127 -420 0
-63 -127 420 0
c gate 421 64 128 0
64 -421 0
128 -421 0
-64 -128 421 0
c gate 422 -420 -421 0
-420 -422 0
-421 -422 0
420 421 422 0
c gate 423 -64 -128 0
-64 -423 0
-128 -423 0
64 128 423 0
c gate 424 422 -423 0
422 -424 0
-423 -424 0
-422 423 424 0
c gate 425 419 424 0
419 -425 0
424 -425 0
-419 -424 425 0
c gate 426 61 125 0
61 -426 0
125 -426 0
-61 -125 426 0
c gate 427 62 126 0
62 -427 0
126 -427 0
-62 -126 427 0
c gate 428 -426 -427 0
-426 -428 0
-427 -428 0
426 427 428 0
c gate 429 -61 -125 0
-61 -429 0
-125 -429 0
61 125 429 0
c gate 430 428 -429 0
428 -430 0
-429 -430 0
-428 429 430 0
c gate 431 425 430 0
425 -431 0
430 -431 0
-425 -430 431 0
c gate 432 416 431 0
416 -432 0
431 -432 0
-416 -431 432 0
c gate 433 -400 432 0
-400 -433 0
432 -433 0
400 -432 433 0
c gate 434 410 -413 0
410 -434 0
-413 -434 0
-410 413 434 0
c gate 435 405 -434 0
405 -435 0
-434 -435 0
-405 434 435 0
c gate 436 -204 416 0
-204 -436 0
416 -436 0
204 -416 436 0
c gate 437 435 -436 0
435 -437 0
-436 -437 0
-435 436 437 0
c gate 438 -429 -437 0
-429 -438 0
-437 -438 0
429 437 438 0
c gate 439 428 -438 0
428 -439 0
-438 -439 0
-428 438 439 0
c gate 440 425 -439 0
425 -440 0
-439 -440 0
-425 439 440 0
c gate 441 -420 -440 0
-420 -441 0
-440 -441 0
420 440 441 0
c gate 442 431 -435 0
431 -442 0
-435 -442 0
-431 435 442 0
c gate 443 419 -428 0
419 -443 0
-428 -443 0
-419 428 443 0
c gate 444 422 -443 0
422 -444 0
-443 -444 0
-422 443 444 0
c gate 445 -423 -444 0
-423 -445 0
-444 -445 0
423 444 445 0
c gate 446 -442 -445 0
-442 -446 0
-445 -446 0
442 445 446 0
c gate 447 -441 446 0
-441 -447 0
446 -447 0
441 -446 447 0
c gate 448 433 447 0
433 -448 0
447 -448 0
-433 -447 448 0
c PO
448 0
